95 83 82 60 11 10 66 91 
62 51 85 92 22 24 74 
65 25 89 76 31 80 
15 47 73 6 79 78 100 68 
98 29 28 30 32 34 50 93 
69 1 36 38 44 37 42 70 
12 16 86 20 48 21 56 
67 71 94 81 61 90 96 72 
14 13 57 52 19 63 
88 17 9 87 58 97 59 
64 23 77 49 84 54 
39 41 99 4 46 55 
2 53 7 8 45 43 
35 40 27 33 
18 26 
75 3 5 

